NAME : netgen18-2-12
COMMENT : Generated using the function generateClusteredNetwork from the R-package netgen (Bossek,2015) - Number of clusters: 2
TYPE : TSP
DIMENSION : 18
EDGE_WEIGHT_TYPE : EUC_2D
NODE_COORD_SECTION
1 35.4278616214 17.5252375751
2 55.5484527512 7.4703147718
3 59.450978002 2.7260328111
4 66.1551278548 14.2593994417
5 52.5106862641 0.4415189475
6 62.6956458435 20.9103400713
7 67.0599569158 23.9884546569
8 68.1840632651 6.2798447266
9 59.2032371534 0.7597233108
10 10.9146057929 65.8584478776
11 8.9546824667 78.6729071689
12 2.7515705863 99.6367209099
13 3.4935704307 91.0371441938
14 0.1117678326 83.4350406098
15 7.8905462778 88.6350120859
16 8.6134503134 87.5428379678
17 1.1516674876 98.2291485156
18 6.7900850613 90.729921086
EOF
